12
0 10 12 14 16 18 20 22 24 26 28 30
10 0 8 12 14 16 18 20 22 24 26 28
12 8 0 10 12 14 16 18 20 22 24 26
14 12 10 0 8 10 14 16 18 20 22 24
16 14 12 8 0 6 10 14 16 18 20 22
18 16 14 10 6 0 8 12 14 16 18 20
20 18 16 14 10 8 0 10 12 14 16 18
22 20 18 16 14 12 10 0 8 12 14 16
24 22 20 18 16 14 12 8 0 10 12 14
26 24 22 20 18 16 14 12 10 0 8 12
28 26 24 22 20 18 16 14 12 8 0 10
30 28 26 24 22 20 18 16 14 12 10 0
0 0 350 0
1 10 110 4
2 20 120 5
3 30 130 4
4 40 140 6
5 50 150 5
6 60 160 4
7 70 170 5
8 80 180 6
9 90 190 4
10 100 200 5
11 110 210 4
